Maximize
F - f1 - f2

Subject to
F - 12y5 - 3y90 - 0y138 - 3y146 - 6y206 - 3y216 - 6y221 - 0y243 - 3y44 - 6y16 - 9y65 - 6y116 - 6y285 - 9y293 - 9y256 - 6y162 - 6y110 - 12y276 - 3y52 - 12y139 - 6y126 = 0
f1 - 0.006591s5 - 0.006591s90 - 0.006591s138 - 0.006591s146 - 0.006591s206 - 0.006591s216 - 0.006591s221 - 0.006591s243 - 0.006591s44 - 0.006591s16 - 0.006591s65 - 0.006591s116 - 0.006591s285 - 0.006591s293 - 0.006591s256 - 0.006591s162 - 0.006591s110 - 0.006591s276 - 0.006591s52 - 0.006591s139 - 0.006591s126  = 0
f2 - 3.63y5 - 1.99y90 - 3.58y138 - 2.50y146 - 3.36y206 - 3.12y216 - 3.61y221 - 2.97y243 - 2.04y44 - 3.06y16 - 1.59y65 - 1.24y116 - 1.04y285 - 1.53y293 - 1.85y256 - 0.73y162 - 1.35y110 - 0.80y276 - 0.45y52 - 2.65y139 - 2.01y126 = 0

x100x216x1 + x100x16x1 + x100x65x1 + x100x285x1 + x100x162x1 + x100x110x1 + x100x52x1 + x100x139x1 
<= 1
x203x216x1 + x203x16x1 + x203x65x1 + x203x285x1 + x203x162x1 + x203x110x1 + x203x52x1 + x203x139x1 
<= 2
x138x216x1 + x138x16x1 + x138x65x1 + x138x285x1 + x138x162x1 + x138x110x1 + x138x52x1 + x138x139x1 
<= 1
x128x285x1 + x128x162x1 + x128x110x1 + x128x52x1 + x128x139x1 
<= 2
x243x285x1 + x243x162x1 + x243x110x1 + x243x52x1 + x243x139x1 
<= 1
x94x216x1 + x94x243x1 + x94x16x1 + x94x65x1 + x94x285x1 + x94x162x1 + x94x110x1 + x94x52x1 + x94x139x1 
<= 2

x118x5x2 + x118x90x2 + x118x216x2 + x118x44x2 + x118x285x2 + x118x256x2 + x118x276x2 + x118x126x2 
<= 1
x100x5x2 + x100x90x2 + x100x216x2 + x100x44x2 + x100x285x2 + x100x256x2 + x100x276x2 + x100x126x2 
<= 1
x14x90x2 + x14x216x2 + x14x44x2 + x14x285x2 + x14x256x2 + x14x276x2 + x14x126x2 
<= 1
x243x285x2 + x243x256x2 + x243x276x2 + x243x126x2 
<= 1
x113x285x2 + x113x256x2 + x113x276x2 + x113x126x2 
<= 1
x217x285x2 + x217x256x2 + x217x276x2 + x217x126x2 
<= 1
x4x5x2 + x4x90x2 + x4x206x2 + x4x216x2 + x4x243x2 + x4x44x2 + x4x285x2 + x4x256x2 + x4x276x2 + x4x126x2 
<= 1
x239x5x2 + x239x90x2 + x239x206x2 + x239x216x2 + x239x243x2 + x239x44x2 + x239x285x2 + x239x256x2 + x239x276x2 + x239x126x2 
<= 2
x118x146x3 + x118x44x3 + x118x116x3 + x118x293x3 + x118x162x3 + x118x52x3 + x118x126x3 
<= 1
x14x146x3 + x14x44x3 + x14x116x3 + x14x293x3 + x14x162x3 + x14x52x3 + x14x126x3 
<= 1
x168x146x3 + x168x44x3 + x168x116x3 + x168x293x3 + x168x162x3 + x168x52x3 + x168x126x3 
<= 2
x138x146x3 + x138x44x3 + x138x116x3 + x138x293x3 + x138x162x3 + x138x52x3 + x138x126x3 
<= 1
x113x116x3 + x113x293x3 + x113x162x3 + x113x52x3 + x113x126x3 
<= 1
x217x116x3 + x217x293x3 + x217x162x3 + x217x52x3 + x217x126x3 
<= 1
x251x146x3 + x251x44x3 + x251x116x3 + x251x293x3 + x251x162x3 + x251x52x3 + x251x126x3 
<= 2

x118x5x2 + x100x5x2 + x4x5x2 + x239x5x2 
- x5x0x2
- x5x285x2 - x5x256x2 - x5x276x2 - x5x126x2 
= 0



x118x90x2 + x100x90x2 + x14x90x2 + x4x90x2 + x239x90x2 
- x90x0x2
- x90x285x2 - x90x256x2 - x90x276x2 - x90x126x2 
= 0



- x138x285x1 - x138x162x1 - x138x110x1 - x138x52x1 - x138x139x1 
= 0


- x138x116x3 - x138x293x3 - x138x162x3 - x138x52x3 - x138x126x3 
= 0



x118x146x3 + x14x146x3 + x168x146x3 + x138x146x3 + x251x146x3 
- x146x0x3
- x146x116x3 - x146x293x3 - x146x162x3 - x146x52x3 - x146x126x3 
= 0


x4x206x2 + x239x206x2 
- x206x0x2
- x206x285x2 - x206x256x2 - x206x276x2 - x206x126x2 
= 0


x100x216x1 + x203x216x1 + x138x216x1 + x94x216x1 
- x216x0x1
- x216x16x1 - x216x285x1 - x216x162x1 - x216x110x1 - x216x52x1 - x216x139x1 
= 0
x118x216x2 + x100x216x2 + x14x216x2 + x4x216x2 + x239x216x2 
- x216x0x2
- x216x285x2 - x216x256x2 - x216x276x2 - x216x126x2 
= 0



- x221x285x1 - x221x162x1 - x221x110x1 - x221x52x1 - x221x139x1 
= 0



x94x243x1 
- x243x0x1
- x243x285x1 - x243x162x1 - x243x110x1 - x243x52x1 - x243x139x1 
= 0
x4x243x2 + x239x243x2 
- x243x0x2
- x243x285x2 - x243x256x2 - x243x276x2 - x243x126x2 
= 0



x118x44x2 + x100x44x2 + x14x44x2 + x4x44x2 + x239x44x2 
- x44x0x2
- x44x285x2 - x44x256x2 - x44x276x2 - x44x126x2 
= 0
x118x44x3 + x14x44x3 + x168x44x3 + x138x44x3 + x251x44x3 
- x44x0x3
- x44x116x3 - x44x293x3 - x44x162x3 - x44x52x3 - x44x126x3 
= 0

x100x16x1 + x203x16x1 + x138x16x1 + x94x16x1 + x216x16x1 
- x16x0x1
- x16x285x1 - x16x162x1 - x16x110x1 - x16x52x1 - x16x139x1 
= 0



x100x65x1 + x203x65x1 + x138x65x1 + x94x65x1 
- x65x0x1
- x65x285x1 - x65x162x1 - x65x110x1 - x65x52x1 - x65x139x1 
= 0





x118x116x3 + x14x116x3 + x168x116x3 + x138x116x3 + x113x116x3 + x217x116x3 + x251x116x3 + x138x116x3 + x146x116x3 + x44x116x3 
- x116x0x3
- x116x293x3 - x116x162x3 - x116x52x3 - x116x126x3 
= 0

x100x285x1 + x203x285x1 + x138x285x1 + x128x285x1 + x243x285x1 + x94x285x1 + x138x285x1 + x216x285x1 + x221x285x1 + x243x285x1 + x16x285x1 + x65x285x1 
- x285x0x1
- x285x162x1 - x285x110x1 - x285x52x1 - x285x139x1 
= 0
x118x285x2 + x100x285x2 + x14x285x2 + x243x285x2 + x113x285x2 + x217x285x2 + x4x285x2 + x239x285x2 + x5x285x2 + x90x285x2 + x206x285x2 + x216x285x2 + x243x285x2 + x44x285x2 
- x285x0x2
- x285x276x2 - x285x126x2 
= 0




x118x293x3 + x14x293x3 + x168x293x3 + x138x293x3 + x113x293x3 + x217x293x3 + x251x293x3 + x138x293x3 + x146x293x3 + x44x293x3 + x116x293x3 
- x293x0x3
- x293x52x3 - x293x126x3 
= 0


x118x256x2 + x100x256x2 + x14x256x2 + x243x256x2 + x113x256x2 + x217x256x2 + x4x256x2 + x239x256x2 + x5x256x2 + x90x256x2 + x206x256x2 + x216x256x2 + x243x256x2 + x44x256x2 
- x256x0x2
- x256x276x2 - x256x126x2 
= 0


x100x162x1 + x203x162x1 + x138x162x1 + x128x162x1 + x243x162x1 + x94x162x1 + x138x162x1 + x216x162x1 + x221x162x1 + x243x162x1 + x16x162x1 + x65x162x1 + x285x162x1 
- x162x0x1
- x162x52x1 
= 0

x118x162x3 + x14x162x3 + x168x162x3 + x138x162x3 + x113x162x3 + x217x162x3 + x251x162x3 + x138x162x3 + x146x162x3 + x44x162x3 + x116x162x3 
- x162x0x3
- x162x52x3 - x162x126x3 
= 0

x100x110x1 + x203x110x1 + x138x110x1 + x128x110x1 + x243x110x1 + x94x110x1 + x138x110x1 + x216x110x1 + x221x110x1 + x243x110x1 + x16x110x1 + x65x110x1 + x285x110x1 
- x110x0x1
- x110x52x1 - x110x139x1 
= 0




x118x276x2 + x100x276x2 + x14x276x2 + x243x276x2 + x113x276x2 + x217x276x2 + x4x276x2 + x239x276x2 + x5x276x2 + x90x276x2 + x206x276x2 + x216x276x2 + x243x276x2 + x44x276x2 + x285x276x2 + x256x276x2 
- x276x0x2
- x276x126x2 
= 0


x100x52x1 + x203x52x1 + x138x52x1 + x128x52x1 + x243x52x1 + x94x52x1 + x138x52x1 + x216x52x1 + x221x52x1 + x243x52x1 + x16x52x1 + x65x52x1 + x285x52x1 + x162x52x1 + x110x52x1 
- x52x0x1

= 0

x118x52x3 + x14x52x3 + x168x52x3 + x138x52x3 + x113x52x3 + x217x52x3 + x251x52x3 + x138x52x3 + x146x52x3 + x44x52x3 + x116x52x3 + x293x52x3 + x162x52x3 
- x52x0x3

= 0

x100x139x1 + x203x139x1 + x138x139x1 + x128x139x1 + x243x139x1 + x94x139x1 + x138x139x1 + x216x139x1 + x221x139x1 + x243x139x1 + x16x139x1 + x65x139x1 + x285x139x1 + x110x139x1 
- x139x0x1

= 0




x118x126x2 + x100x126x2 + x14x126x2 + x243x126x2 + x113x126x2 + x217x126x2 + x4x126x2 + x239x126x2 + x5x126x2 + x90x126x2 + x206x126x2 + x216x126x2 + x243x126x2 + x44x126x2 + x285x126x2 + x256x126x2 + x276x126x2 
- x126x0x2

= 0
x118x126x3 + x14x126x3 + x168x126x3 + x138x126x3 + x113x126x3 + x217x126x3 + x251x126x3 + x138x126x3 + x146x126x3 + x44x126x3 + x116x126x3 + x293x126x3 + x162x126x3 
- x126x0x3

= 0

2y5 - x118x5x2 - x100x5x2 - x4x5x2 - x239x5x2 = 0
2y90 - x118x90x2 - x100x90x2 - x14x90x2 - x4x90x2 - x239x90x2 = 0
1y138 = 0
1y138 = 0
2y146 - x118x146x3 - x14x146x3 - x168x146x3 - x138x146x3 - x251x146x3 = 0
2y206 - x4x206x2 - x239x206x2 = 0
1y216 - x100x216x1 - x203x216x1 - x138x216x1 - x94x216x1 = 0
1y216 - x118x216x2 - x100x216x2 - x14x216x2 - x4x216x2 - x239x216x2 = 0
2y221 = 0
1y243 - x94x243x1 = 0
1y243 - x4x243x2 - x239x243x2 = 0
1y44 - x118x44x2 - x100x44x2 - x14x44x2 - x4x44x2 - x239x44x2 = 0
1y44 - x118x44x3 - x14x44x3 - x168x44x3 - x138x44x3 - x251x44x3 = 0
2y16 - x100x16x1 - x203x16x1 - x138x16x1 - x94x16x1 - x216x16x1 = 0
2y65 - x100x65x1 - x203x65x1 - x138x65x1 - x94x65x1 = 0
2y116 - x118x116x3 - x14x116x3 - x168x116x3 - x138x116x3 - x113x116x3 - x217x116x3 - x251x116x3 - x138x116x3 - x146x116x3 - x44x116x3 = 0
1y285 - x100x285x1 - x203x285x1 - x138x285x1 - x128x285x1 - x243x285x1 - x94x285x1 - x138x285x1 - x216x285x1 - x221x285x1 - x243x285x1 - x16x285x1 - x65x285x1 = 0
1y285 - x118x285x2 - x100x285x2 - x14x285x2 - x243x285x2 - x113x285x2 - x217x285x2 - x4x285x2 - x239x285x2 - x5x285x2 - x90x285x2 - x206x285x2 - x216x285x2 - x243x285x2 - x44x285x2 = 0
2y293 - x118x293x3 - x14x293x3 - x168x293x3 - x138x293x3 - x113x293x3 - x217x293x3 - x251x293x3 - x138x293x3 - x146x293x3 - x44x293x3 - x116x293x3 = 0
2y256 - x118x256x2 - x100x256x2 - x14x256x2 - x243x256x2 - x113x256x2 - x217x256x2 - x4x256x2 - x239x256x2 - x5x256x2 - x90x256x2 - x206x256x2 - x216x256x2 - x243x256x2 - x44x256x2 = 0
1y162 - x100x162x1 - x203x162x1 - x138x162x1 - x128x162x1 - x243x162x1 - x94x162x1 - x138x162x1 - x216x162x1 - x221x162x1 - x243x162x1 - x16x162x1 - x65x162x1 - x285x162x1 = 0
1y162 - x118x162x3 - x14x162x3 - x168x162x3 - x138x162x3 - x113x162x3 - x217x162x3 - x251x162x3 - x138x162x3 - x146x162x3 - x44x162x3 - x116x162x3 = 0
2y110 - x100x110x1 - x203x110x1 - x138x110x1 - x128x110x1 - x243x110x1 - x94x110x1 - x138x110x1 - x216x110x1 - x221x110x1 - x243x110x1 - x16x110x1 - x65x110x1 - x285x110x1 = 0
2y276 - x118x276x2 - x100x276x2 - x14x276x2 - x243x276x2 - x113x276x2 - x217x276x2 - x4x276x2 - x239x276x2 - x5x276x2 - x90x276x2 - x206x276x2 - x216x276x2 - x243x276x2 - x44x276x2 - x285x276x2 - x256x276x2 = 0
1y52 - x100x52x1 - x203x52x1 - x138x52x1 - x128x52x1 - x243x52x1 - x94x52x1 - x138x52x1 - x216x52x1 - x221x52x1 - x243x52x1 - x16x52x1 - x65x52x1 - x285x52x1 - x162x52x1 - x110x52x1 = 0
1y52 - x118x52x3 - x14x52x3 - x168x52x3 - x138x52x3 - x113x52x3 - x217x52x3 - x251x52x3 - x138x52x3 - x146x52x3 - x44x52x3 - x116x52x3 - x293x52x3 - x162x52x3 = 0
2y139 - x100x139x1 - x203x139x1 - x138x139x1 - x128x139x1 - x243x139x1 - x94x139x1 - x138x139x1 - x216x139x1 - x221x139x1 - x243x139x1 - x16x139x1 - x65x139x1 - x285x139x1 - x110x139x1 = 0
1y126 - x118x126x2 - x100x126x2 - x14x126x2 - x243x126x2 - x113x126x2 - x217x126x2 - x4x126x2 - x239x126x2 - x5x126x2 - x90x126x2 - x206x126x2 - x216x126x2 - x243x126x2 - x44x126x2 - x285x126x2 - x256x126x2 - x276x126x2 = 0
1y126 - x118x126x3 - x14x126x3 - x168x126x3 - x138x126x3 - x113x126x3 - x217x126x3 - x251x126x3 - x138x126x3 - x146x126x3 - x44x126x3 - x116x126x3 - x293x126x3 - x162x126x3 = 0

s118 - s5 + 6.557348z118z5z2 <= 4.94
s118 - s90 + 6.484536z118z90z2 <= 4.94
s118 - s146 + 6.541293z118z146z3 <= 4.94
s118 - s216 + 6.535547z118z216z2 <= 4.94
s118 - s44 + 6.329084z118z44z2 <= 4.94
s118 - s44 + 6.329084z118z44z3 <= 4.94
s118 - s116 + 6.537778z118z116z3 <= 4.94
s118 - s285 + 6.586143z118z285z2 <= 4.94
s118 - s293 + 6.661423z118z293z3 <= 4.94
s118 - s256 + 6.694969z118z256z2 <= 4.94
s118 - s162 + 6.521717z118z162z3 <= 4.94
s118 - s276 + 6.743856z118z276z2 <= 4.94
s118 - s52 + 6.737954z118z52z3 <= 4.94
s118 - s126 + 6.775136z118z126z2 <= 4.94
s118 - s126 + 6.775136z118z126z3 <= 4.94
s100 - s5 + 6.393697z100z5z2 <= 5.03
s100 - s90 + 6.588726z100z90z2 <= 5.03
s100 - s216 + 6.455075z100z216z1 <= 5.03
s100 - s216 + 6.455075z100z216z2 <= 5.03
s100 - s44 + 6.528597z100z44z2 <= 5.03
s100 - s16 + 6.516566z100z16z1 <= 5.03
s100 - s65 + 6.651292z100z65z1 <= 5.03
s100 - s285 + 6.763027z100z285z1 <= 5.03
s100 - s285 + 6.763027z100z285z2 <= 5.03
s100 - s256 + 6.730143z100z256z2 <= 5.03
s100 - s162 + 6.768416z100z162z1 <= 5.03
s100 - s110 + 6.814949z100z110z1 <= 5.03
s100 - s276 + 6.887989z100z276z2 <= 5.03
s100 - s52 + 6.924484z100z52z1 <= 5.03
s100 - s139 + 6.664931z100z139z1 <= 5.03
s100 - s126 + 6.767606z100z126z2 <= 5.03
s203 - s216 + 6.479831z203z216z1 <= 5.11
s203 - s16 + 6.551871z203z16z1 <= 5.11
s203 - s65 + 6.654328z203z65z1 <= 5.11
s203 - s285 + 6.767411z203z285z1 <= 5.11
s203 - s162 + 6.765156z203z162z1 <= 5.11
s203 - s110 + 6.834059z203z110z1 <= 5.11
s203 - s52 + 6.932894z203z52z1 <= 5.11
s203 - s139 + 6.705941z203z139z1 <= 5.11
s14 - s90 + 6.704359z14z90z2 <= 5.32
s14 - s146 + 6.724775z14z146z3 <= 5.32
s14 - s216 + 6.685431z14z216z2 <= 5.32
s14 - s44 + 6.568579z14z44z2 <= 5.32
s14 - s44 + 6.568579z14z44z3 <= 5.32
s14 - s116 + 6.803557z14z116z3 <= 5.32
s14 - s285 + 6.858469z14z285z2 <= 5.32
s14 - s293 + 6.895283z14z293z3 <= 5.32
s14 - s256 + 6.908861z14z256z2 <= 5.32
s14 - s162 + 6.827149z14z162z3 <= 5.32
s14 - s276 + 7.012491z14z276z2 <= 5.32
s14 - s52 + 7.027881z14z52z3 <= 5.32
s14 - s126 + 6.977621z14z126z2 <= 5.32
s14 - s126 + 6.977621z14z126z3 <= 5.32
s168 - s146 + 6.571672z168z146z3 <= 5.24
s168 - s44 + 6.382455z168z44z3 <= 5.24
s168 - s116 + 6.618712z168z116z3 <= 5.24
s168 - s293 + 6.721277z168z293z3 <= 5.24
s168 - s162 + 6.635856z168z162z3 <= 5.24
s168 - s52 + 6.841036z168z52z3 <= 5.24
s168 - s126 + 6.817487z168z126z3 <= 5.24
s138 - s146 + 6.751761z138z146z3 <= 5.51
s138 - s216 + 6.683180z138z216z1 <= 5.51
s138 - s44 + 6.720613z138z44z3 <= 5.51
s138 - s16 + 6.766833z138z16z1 <= 5.51
s138 - s65 + 6.835538z138z65z1 <= 5.51
s138 - s116 + 6.896647z138z116z3 <= 5.51
s138 - s285 + 6.948436z138z285z1 <= 5.51
s138 - s293 + 6.947831z138z293z3 <= 5.51
s138 - s162 + 6.950396z138z162z1 <= 5.51
s138 - s162 + 6.950396z138z162z3 <= 5.51
s138 - s110 + 7.019858z138z110z1 <= 5.51
s138 - s52 + 7.113842z138z52z1 <= 5.51
s138 - s52 + 7.113842z138z52z3 <= 5.51
s138 - s139 + 6.920562z138z139z1 <= 5.51
s138 - s126 + 6.999110z138z126z3 <= 5.51
s128 - s285 + 7.308771z128z285z1 <= 5.84
s128 - s162 + 7.257293z128z162z1 <= 5.84
s128 - s110 + 7.444067z128z110z1 <= 5.84
s128 - s52 + 7.470899z128z52z1 <= 5.84
s128 - s139 + 7.444324z128z139z1 <= 5.84
s243 - s285 + 7.339327z243z285z1 <= 5.99
s243 - s285 + 7.339327z243z285z2 <= 5.99
s243 - s256 + 7.349488z243z256z2 <= 5.99
s243 - s162 + 7.340143z243z162z1 <= 5.99
s243 - s110 + 7.420049z243z110z1 <= 5.99
s243 - s276 + 7.477903z243z276z2 <= 5.99
s243 - s52 + 7.506126z243z52z1 <= 5.99
s243 - s139 + 7.349488z243z139z1 <= 5.99
s243 - s126 + 7.412877z243z126z2 <= 5.99
s113 - s116 + 7.276228z113z116z3 <= 5.96
s113 - s285 + 7.319382z113z285z2 <= 5.96
s113 - s293 + 7.408206z113z293z3 <= 5.96
s113 - s256 + 7.452161z113z256z2 <= 5.96
s113 - s162 + 7.248521z113z162z3 <= 5.96
s113 - s276 + 7.473853z113z276z2 <= 5.96
s113 - s52 + 7.464028z113z52z3 <= 5.96
s113 - s126 + 7.536040z113z126z2 <= 5.96
s113 - s126 + 7.536040z113z126z3 <= 5.96
s217 - s116 + 7.277153z217z116z3 <= 5.97
s217 - s285 + 7.319615z217z285z2 <= 5.97
s217 - s293 + 7.409699z217z293z3 <= 5.97
s217 - s256 + 7.454513z217z256z2 <= 5.97
s217 - s162 + 7.247976z217z162z3 <= 5.97
s217 - s276 + 7.473600z217z276z2 <= 5.97
s217 - s52 + 7.463310z217z52z3 <= 5.97
s217 - s126 + 7.538536z217z126z2 <= 5.97
s217 - s126 + 7.538536z217z126z3 <= 5.97
s4 - s5 + 6.230609z4z5z2 <= 4.62
s4 - s90 + 6.185261z4z90z2 <= 4.62
s4 - s206 + 6.063976z4z206z2 <= 4.62
s4 - s216 + 6.216990z4z216z2 <= 4.62
s4 - s243 + 6.079634z4z243z2 <= 4.62
s4 - s44 + 6.029166z4z44z2 <= 4.62
s4 - s285 + 6.300701z4z285z2 <= 4.62
s4 - s256 + 6.397343z4z256z2 <= 4.62
s4 - s276 + 6.459528z4z276z2 <= 4.62
s4 - s126 + 6.475194z4z126z2 <= 4.62
s239 - s5 + 6.200281z239z5z2 <= 4.74
s239 - s90 + 6.226735z239z90z2 <= 4.74
s239 - s206 + 6.041246z239z206z2 <= 4.74
s239 - s216 + 6.205815z239z216z2 <= 4.74
s239 - s243 + 6.076742z239z243z2 <= 4.74
s239 - s44 + 6.085210z239z44z2 <= 4.74
s239 - s285 + 6.376262z239z285z2 <= 4.74
s239 - s256 + 6.432486z239z256z2 <= 4.74
s239 - s276 + 6.532072z239z276z2 <= 4.74
s239 - s126 + 6.501428z239z126z2 <= 4.74
s251 - s146 + 6.421618z251z146z3 <= 4.85
s251 - s44 + 6.375170z251z44z3 <= 4.85
s251 - s116 + 6.575528z251z116z3 <= 4.85
s251 - s293 + 6.621468z251z293z3 <= 4.85
s251 - s162 + 6.625154z251z162z3 <= 4.85
s251 - s52 + 6.792688z251z52z3 <= 4.85
s251 - s126 + 6.651043z251z126z3 <= 4.85
s94 - s216 + 6.350761z94z216z1 <= 4.86
s94 - s243 + 6.295203z94z243z1 <= 4.86
s94 - s16 + 6.416453z94z16z1 <= 4.86
s94 - s65 + 6.535226z94z65z1 <= 4.86
s94 - s285 + 6.648087z94z285z1 <= 4.86
s94 - s162 + 6.646988z94z162z1 <= 4.86
s94 - s110 + 6.709038z94z110z1 <= 4.86
s94 - s52 + 6.812516z94z52z1 <= 4.86
s94 - s139 + 6.566963z94z139z1 <= 4.86
s5 - s285 + 8.068466z5z285z2 <= 6.66
s5 - s256 + 8.000065z5z256z2 <= 6.66
s5 - s276 + 8.168636z5z276z2 <= 6.66
s5 - s126 + 8.033928z5z126z2 <= 6.66
s90 - s285 + 8.144484z90z285z2 <= 6.97
s90 - s256 + 8.182184z90z256z2 <= 6.97
s90 - s276 + 8.283829z90z276z2 <= 6.97
s90 - s126 + 8.260670z90z126z2 <= 6.97
s138 - s116 + 7.479473z138z116z3 <= 6.09
s138 - s285 + 7.531261z138z285z1 <= 6.09
s138 - s293 + 7.530656z138z293z3 <= 6.09
s138 - s162 + 7.533221z138z162z1 <= 6.09
s138 - s162 + 7.533221z138z162z3 <= 6.09
s138 - s110 + 7.602684z138z110z1 <= 6.09
s138 - s52 + 7.696667z138z52z1 <= 6.09
s138 - s52 + 7.696667z138z52z3 <= 6.09
s138 - s139 + 7.503387z138z139z1 <= 6.09
s138 - s126 + 7.581935z138z126z3 <= 6.09
s146 - s116 + 8.104708z146z116z3 <= 6.91
s146 - s293 + 8.110111z146z293z3 <= 6.91
s146 - s162 + 8.183414z146z162z3 <= 6.91
s146 - s52 + 8.290467z146z52z3 <= 6.91
s146 - s126 + 8.163421z146z126z3 <= 6.91
s206 - s285 + 7.603817z206z285z2 <= 6.19
s206 - s256 + 7.605959z206z256z2 <= 6.19
s206 - s276 + 7.740717z206z276z2 <= 6.19
s206 - s126 + 7.664646z206z126z2 <= 6.19
s216 - s16 + 7.785375z216z16z1 <= 6.70
s216 - s285 + 8.031059z216z285z1 <= 6.70
s216 - s285 + 8.031059z216z285z2 <= 6.70
s216 - s256 + 7.975358z216z256z2 <= 6.70
s216 - s162 + 8.065453z216z162z1 <= 6.70
s216 - s110 + 8.060061z216z110z1 <= 6.70
s216 - s276 + 8.136602z216z276z2 <= 6.70
s216 - s52 + 8.178701z216z52z1 <= 6.70
s216 - s139 + 7.937393z216z139z1 <= 6.70
s216 - s126 + 8.020694z216z126z2 <= 6.70
s221 - s285 + 7.571844z221z285z1 <= 6.14
s221 - s162 + 7.580858z221z162z1 <= 6.14
s221 - s110 + 7.633198z221z110z1 <= 6.14
s221 - s52 + 7.734269z221z52z1 <= 6.14
s221 - s139 + 7.522855z221z139z1 <= 6.14
s243 - s285 + 7.743585z243z285z1 <= 6.39
s243 - s285 + 7.743585z243z285z2 <= 6.39
s243 - s256 + 7.753746z243z256z2 <= 6.39
s243 - s162 + 7.744401z243z162z1 <= 6.39
s243 - s110 + 7.824306z243z110z1 <= 6.39
s243 - s276 + 7.882161z243z276z2 <= 6.39
s243 - s52 + 7.910384z243z52z1 <= 6.39
s243 - s139 + 7.753746z243z139z1 <= 6.39
s243 - s126 + 7.817135z243z126z2 <= 6.39
s44 - s116 + 8.256455z44z116z3 <= 7.02
s44 - s285 + 8.311051z44z285z2 <= 7.02
s44 - s293 + 8.361500z44z293z3 <= 7.02
s44 - s256 + 8.388179z44z256z2 <= 7.02
s44 - s162 + 8.280342z44z162z3 <= 7.02
s44 - s276 + 8.467462z44z276z2 <= 7.02
s44 - s52 + 8.479758z44z52z3 <= 7.02
s44 - s126 + 8.466717z44z126z2 <= 7.02
s44 - s126 + 8.466717z44z126z3 <= 7.02
s16 - s285 + 8.501801z16z285z1 <= 7.18
s16 - s162 + 8.554818z16z162z1 <= 7.18
s16 - s110 + 8.492481z16z110z1 <= 7.18
s16 - s52 + 8.628206z16z52z1 <= 7.18
s16 - s139 + 8.335492z16z139z1 <= 7.18
s65 - s285 + 8.303333z65z285z1 <= 7.19
s65 - s162 + 8.322330z65z162z1 <= 7.19
s65 - s110 + 8.417059z65z110z1 <= 7.19
s65 - s52 + 8.471977z65z52z1 <= 7.19
s65 - s139 + 8.476666z65z139z1 <= 7.19
s116 - s293 + 8.544990z116z293z3 <= 7.41
s116 - s162 + 8.493533z116z162z3 <= 7.41
s116 - s52 + 8.634895z116z52z3 <= 7.41
s116 - s126 + 8.681948z116z126z3 <= 7.41
s285 - s162 + 8.647686z285z162z1 <= 7.56
s285 - s110 + 8.718465z285z110z1 <= 7.56
s285 - s276 + 8.719025z285z276z2 <= 7.56
s285 - s52 + 8.729967z285z52z1 <= 7.56
s285 - s139 + 8.868257z285z139z1 <= 7.56
s285 - s126 + 8.813334z285z126z2 <= 7.56
s293 - s52 + 8.760904z293z52z3 <= 7.57
s293 - s126 + 8.710159z293z126z3 <= 7.57
s256 - s276 + 8.881965z256z276z2 <= 7.70
s256 - s126 + 8.784328z256z126z2 <= 7.70
s162 - s52 + 8.986333z162z52z1 <= 7.77
s162 - s52 + 8.986333z162z52z3 <= 7.77
s162 - s126 + 9.110261z162z126z3 <= 7.77
s110 - s52 + 9.035635z110z52z1 <= 7.88
s110 - s139 + 9.102811z110z139z1 <= 7.88
s276 - s126 + 9.193438z276z126z2 <= 7.98

x118x5x2 - 2z118z5z2 <= 0
x118x90x2 - 2z118z90z2 <= 0
x118x146x3 - 2z118z146z3 <= 0
x118x216x2 - 1z118z216z2 <= 0
x118x44x2 - 1z118z44z2 <= 0
x118x44x3 - 1z118z44z3 <= 0
x118x116x3 - 2z118z116z3 <= 0
x118x285x2 - 1z118z285z2 <= 0
x118x293x3 - 2z118z293z3 <= 0
x118x256x2 - 2z118z256z2 <= 0
x118x162x3 - 1z118z162z3 <= 0
x118x276x2 - 2z118z276z2 <= 0
x118x52x3 - 1z118z52z3 <= 0
x118x126x2 - 1z118z126z2 <= 0
x118x126x3 - 1z118z126z3 <= 0
x100x5x2 - 2z100z5z2 <= 0
x100x90x2 - 2z100z90z2 <= 0
x100x216x1 - 1z100z216z1 <= 0
x100x216x2 - 1z100z216z2 <= 0
x100x44x2 - 1z100z44z2 <= 0
x100x16x1 - 2z100z16z1 <= 0
x100x65x1 - 2z100z65z1 <= 0
x100x285x1 - 1z100z285z1 <= 0
x100x285x2 - 1z100z285z2 <= 0
x100x256x2 - 2z100z256z2 <= 0
x100x162x1 - 1z100z162z1 <= 0
x100x110x1 - 2z100z110z1 <= 0
x100x276x2 - 2z100z276z2 <= 0
x100x52x1 - 1z100z52z1 <= 0
x100x139x1 - 2z100z139z1 <= 0
x100x126x2 - 1z100z126z2 <= 0
x203x216x1 - 1z203z216z1 <= 0
x203x16x1 - 2z203z16z1 <= 0
x203x65x1 - 2z203z65z1 <= 0
x203x285x1 - 1z203z285z1 <= 0
x203x162x1 - 1z203z162z1 <= 0
x203x110x1 - 2z203z110z1 <= 0
x203x52x1 - 1z203z52z1 <= 0
x203x139x1 - 2z203z139z1 <= 0
x14x90x2 - 2z14z90z2 <= 0
x14x146x3 - 2z14z146z3 <= 0
x14x216x2 - 1z14z216z2 <= 0
x14x44x2 - 1z14z44z2 <= 0
x14x44x3 - 1z14z44z3 <= 0
x14x116x3 - 2z14z116z3 <= 0
x14x285x2 - 1z14z285z2 <= 0
x14x293x3 - 2z14z293z3 <= 0
x14x256x2 - 2z14z256z2 <= 0
x14x162x3 - 1z14z162z3 <= 0
x14x276x2 - 2z14z276z2 <= 0
x14x52x3 - 1z14z52z3 <= 0
x14x126x2 - 1z14z126z2 <= 0
x14x126x3 - 1z14z126z3 <= 0
x168x146x3 - 2z168z146z3 <= 0
x168x44x3 - 1z168z44z3 <= 0
x168x116x3 - 2z168z116z3 <= 0
x168x293x3 - 2z168z293z3 <= 0
x168x162x3 - 1z168z162z3 <= 0
x168x52x3 - 1z168z52z3 <= 0
x168x126x3 - 1z168z126z3 <= 0
x138x146x3 - 2z138z146z3 <= 0
x138x216x1 - 1z138z216z1 <= 0
x138x44x3 - 1z138z44z3 <= 0
x138x16x1 - 2z138z16z1 <= 0
x138x65x1 - 2z138z65z1 <= 0
x138x116x3 - 2z138z116z3 <= 0
x138x285x1 - 1z138z285z1 <= 0
x138x293x3 - 2z138z293z3 <= 0
x138x162x1 - 1z138z162z1 <= 0
x138x162x3 - 1z138z162z3 <= 0
x138x110x1 - 2z138z110z1 <= 0
x138x52x1 - 1z138z52z1 <= 0
x138x52x3 - 1z138z52z3 <= 0
x138x139x1 - 2z138z139z1 <= 0
x138x126x3 - 1z138z126z3 <= 0
x128x285x1 - 1z128z285z1 <= 0
x128x162x1 - 1z128z162z1 <= 0
x128x110x1 - 2z128z110z1 <= 0
x128x52x1 - 1z128z52z1 <= 0
x128x139x1 - 2z128z139z1 <= 0
x243x285x1 - 1z243z285z1 <= 0
x243x285x2 - 1z243z285z2 <= 0
x243x256x2 - 2z243z256z2 <= 0
x243x162x1 - 1z243z162z1 <= 0
x243x110x1 - 2z243z110z1 <= 0
x243x276x2 - 2z243z276z2 <= 0
x243x52x1 - 1z243z52z1 <= 0
x243x139x1 - 2z243z139z1 <= 0
x243x126x2 - 1z243z126z2 <= 0
x113x116x3 - 2z113z116z3 <= 0
x113x285x2 - 1z113z285z2 <= 0
x113x293x3 - 2z113z293z3 <= 0
x113x256x2 - 2z113z256z2 <= 0
x113x162x3 - 1z113z162z3 <= 0
x113x276x2 - 2z113z276z2 <= 0
x113x52x3 - 1z113z52z3 <= 0
x113x126x2 - 1z113z126z2 <= 0
x113x126x3 - 1z113z126z3 <= 0
x217x116x3 - 2z217z116z3 <= 0
x217x285x2 - 1z217z285z2 <= 0
x217x293x3 - 2z217z293z3 <= 0
x217x256x2 - 2z217z256z2 <= 0
x217x162x3 - 1z217z162z3 <= 0
x217x276x2 - 2z217z276z2 <= 0
x217x52x3 - 1z217z52z3 <= 0
x217x126x2 - 1z217z126z2 <= 0
x217x126x3 - 1z217z126z3 <= 0
x4x5x2 - 2z4z5z2 <= 0
x4x90x2 - 2z4z90z2 <= 0
x4x206x2 - 2z4z206z2 <= 0
x4x216x2 - 1z4z216z2 <= 0
x4x243x2 - 1z4z243z2 <= 0
x4x44x2 - 1z4z44z2 <= 0
x4x285x2 - 1z4z285z2 <= 0
x4x256x2 - 2z4z256z2 <= 0
x4x276x2 - 2z4z276z2 <= 0
x4x126x2 - 1z4z126z2 <= 0
x239x5x2 - 2z239z5z2 <= 0
x239x90x2 - 2z239z90z2 <= 0
x239x206x2 - 2z239z206z2 <= 0
x239x216x2 - 1z239z216z2 <= 0
x239x243x2 - 1z239z243z2 <= 0
x239x44x2 - 1z239z44z2 <= 0
x239x285x2 - 1z239z285z2 <= 0
x239x256x2 - 2z239z256z2 <= 0
x239x276x2 - 2z239z276z2 <= 0
x239x126x2 - 1z239z126z2 <= 0
x251x146x3 - 2z251z146z3 <= 0
x251x44x3 - 1z251z44z3 <= 0
x251x116x3 - 2z251z116z3 <= 0
x251x293x3 - 2z251z293z3 <= 0
x251x162x3 - 1z251z162z3 <= 0
x251x52x3 - 1z251z52z3 <= 0
x251x126x3 - 1z251z126z3 <= 0
x94x216x1 - 1z94z216z1 <= 0
x94x243x1 - 1z94z243z1 <= 0
x94x16x1 - 2z94z16z1 <= 0
x94x65x1 - 2z94z65z1 <= 0
x94x285x1 - 1z94z285z1 <= 0
x94x162x1 - 1z94z162z1 <= 0
x94x110x1 - 2z94z110z1 <= 0
x94x52x1 - 1z94z52z1 <= 0
x94x139x1 - 2z94z139z1 <= 0
x5x285x2 - 1z5z285z2 <= 0
x5x256x2 - 2z5z256z2 <= 0
x5x276x2 - 2z5z276z2 <= 0
x5x126x2 - 1z5z126z2 <= 0
x5x0x2 <= 2
x90x285x2 - 1z90z285z2 <= 0
x90x256x2 - 2z90z256z2 <= 0
x90x276x2 - 2z90z276z2 <= 0
x90x126x2 - 1z90z126z2 <= 0
x90x0x2 <= 2
x138x116x3 - 2z138z116z3 <= 0
x138x285x1 - 1z138z285z1 <= 0
x138x293x3 - 2z138z293z3 <= 0
x138x162x1 - 1z138z162z1 <= 0
x138x162x3 - 1z138z162z3 <= 0
x138x110x1 - 2z138z110z1 <= 0
x138x52x1 - 1z138z52z1 <= 0
x138x52x3 - 1z138z52z3 <= 0
x138x139x1 - 2z138z139z1 <= 0
x138x126x3 - 1z138z126z3 <= 0
x138x0x1 <= 1
x138x0x3 <= 1
x146x116x3 - 2z146z116z3 <= 0
x146x293x3 - 2z146z293z3 <= 0
x146x162x3 - 1z146z162z3 <= 0
x146x52x3 - 1z146z52z3 <= 0
x146x126x3 - 1z146z126z3 <= 0
x146x0x3 <= 2
x206x285x2 - 1z206z285z2 <= 0
x206x256x2 - 2z206z256z2 <= 0
x206x276x2 - 2z206z276z2 <= 0
x206x126x2 - 1z206z126z2 <= 0
x206x0x2 <= 2
x216x16x1 - 2z216z16z1 <= 0
x216x285x1 - 1z216z285z1 <= 0
x216x285x2 - 1z216z285z2 <= 0
x216x256x2 - 2z216z256z2 <= 0
x216x162x1 - 1z216z162z1 <= 0
x216x110x1 - 2z216z110z1 <= 0
x216x276x2 - 2z216z276z2 <= 0
x216x52x1 - 1z216z52z1 <= 0
x216x139x1 - 2z216z139z1 <= 0
x216x126x2 - 1z216z126z2 <= 0
x216x0x1 <= 1
x216x0x2 <= 1
x221x285x1 - 1z221z285z1 <= 0
x221x162x1 - 1z221z162z1 <= 0
x221x110x1 - 2z221z110z1 <= 0
x221x52x1 - 1z221z52z1 <= 0
x221x139x1 - 2z221z139z1 <= 0
x221x0x1 <= 2
x243x285x1 - 1z243z285z1 <= 0
x243x285x2 - 1z243z285z2 <= 0
x243x256x2 - 2z243z256z2 <= 0
x243x162x1 - 1z243z162z1 <= 0
x243x110x1 - 2z243z110z1 <= 0
x243x276x2 - 2z243z276z2 <= 0
x243x52x1 - 1z243z52z1 <= 0
x243x139x1 - 2z243z139z1 <= 0
x243x126x2 - 1z243z126z2 <= 0
x243x0x1 <= 1
x243x0x2 <= 1
x44x116x3 - 2z44z116z3 <= 0
x44x285x2 - 1z44z285z2 <= 0
x44x293x3 - 2z44z293z3 <= 0
x44x256x2 - 2z44z256z2 <= 0
x44x162x3 - 1z44z162z3 <= 0
x44x276x2 - 2z44z276z2 <= 0
x44x52x3 - 1z44z52z3 <= 0
x44x126x2 - 1z44z126z2 <= 0
x44x126x3 - 1z44z126z3 <= 0
x44x0x2 <= 1
x44x0x3 <= 1
x16x285x1 - 1z16z285z1 <= 0
x16x162x1 - 1z16z162z1 <= 0
x16x110x1 - 2z16z110z1 <= 0
x16x52x1 - 1z16z52z1 <= 0
x16x139x1 - 2z16z139z1 <= 0
x16x0x1 <= 2
x65x285x1 - 1z65z285z1 <= 0
x65x162x1 - 1z65z162z1 <= 0
x65x110x1 - 2z65z110z1 <= 0
x65x52x1 - 1z65z52z1 <= 0
x65x139x1 - 2z65z139z1 <= 0
x65x0x1 <= 2
x116x293x3 - 2z116z293z3 <= 0
x116x162x3 - 1z116z162z3 <= 0
x116x52x3 - 1z116z52z3 <= 0
x116x126x3 - 1z116z126z3 <= 0
x116x0x3 <= 2
x285x162x1 - 1z285z162z1 <= 0
x285x110x1 - 2z285z110z1 <= 0
x285x276x2 - 2z285z276z2 <= 0
x285x52x1 - 1z285z52z1 <= 0
x285x139x1 - 2z285z139z1 <= 0
x285x126x2 - 1z285z126z2 <= 0
x285x0x1 <= 1
x285x0x2 <= 1
x293x52x3 - 1z293z52z3 <= 0
x293x126x3 - 1z293z126z3 <= 0
x293x0x3 <= 2
x256x276x2 - 2z256z276z2 <= 0
x256x126x2 - 1z256z126z2 <= 0
x256x0x2 <= 2
x162x52x1 - 1z162z52z1 <= 0
x162x52x3 - 1z162z52z3 <= 0
x162x126x3 - 1z162z126z3 <= 0
x162x0x1 <= 1
x162x0x3 <= 1
x110x52x1 - 1z110z52z1 <= 0
x110x139x1 - 2z110z139z1 <= 0
x110x0x1 <= 2
x276x126x2 - 1z276z126z2 <= 0
x276x0x2 <= 2
x52x0x1 <= 1
x52x0x3 <= 1
x139x0x1 <= 2
x126x0x2 <= 1
x126x0x3 <= 1

Bounds
s118 = 4.938927
s100 = 5.027576
s203 = 5.106200
s14 = 5.322725
s168 = 5.242296
s138 = 5.507175
s128 = 5.838830
s243 = 5.985742
s113 = 5.960000
s217 = 5.973912
s4 = 4.623320
s239 = 4.737200
s251 = 4.845810
s94 = 4.858600
6.000000 <= s5 <= 6.660000
6.000000 <= s90 <= 6.970000
6.000000 <= s138 <= 6.090000
6.000000 <= s146 <= 6.910000
6.000000 <= s206 <= 6.190000
6.000000 <= s216 <= 6.700000
6.000000 <= s221 <= 6.140000
6.000000 <= s243 <= 6.390000
6.020000 <= s44 <= 7.020000
6.180000 <= s16 <= 7.180000
6.190000 <= s65 <= 7.190000
6.410000 <= s116 <= 7.410000
6.560000 <= s285 <= 7.560000
6.570000 <= s293 <= 7.570000
6.700000 <= s256 <= 7.700000
6.770000 <= s162 <= 7.770000
6.880000 <= s110 <= 7.880000
6.980000 <= s276 <= 7.980000
7.070000 <= s52 <= 8.070000
7.120000 <= s139 <= 8.120000
7.220000 <= s126 <= 8.220000

General
x118x5x2 x118x90x2 x118x146x3 x118x216x2 x118x44x2 x118x44x3 x118x116x3 x118x285x2 x118x293x3 x118x256x2 x118x162x3 x118x276x2 x118x52x3 x118x126x2 x118x126x3 
x100x5x2 x100x90x2 x100x216x1 x100x216x2 x100x44x2 x100x16x1 x100x65x1 x100x285x1 x100x285x2 x100x256x2 x100x162x1 x100x110x1 x100x276x2 x100x52x1 x100x139x1 x100x126x2 
x203x216x1 x203x16x1 x203x65x1 x203x285x1 x203x162x1 x203x110x1 x203x52x1 x203x139x1 
x14x90x2 x14x146x3 x14x216x2 x14x44x2 x14x44x3 x14x116x3 x14x285x2 x14x293x3 x14x256x2 x14x162x3 x14x276x2 x14x52x3 x14x126x2 x14x126x3 
x168x146x3 x168x44x3 x168x116x3 x168x293x3 x168x162x3 x168x52x3 x168x126x3 
x138x146x3 x138x216x1 x138x44x3 x138x16x1 x138x65x1 x138x116x3 x138x285x1 x138x293x3 x138x162x1 x138x162x3 x138x110x1 x138x52x1 x138x52x3 x138x139x1 x138x126x3 
x128x285x1 x128x162x1 x128x110x1 x128x52x1 x128x139x1 
x243x285x1 x243x285x2 x243x256x2 x243x162x1 x243x110x1 x243x276x2 x243x52x1 x243x139x1 x243x126x2 
x113x116x3 x113x285x2 x113x293x3 x113x256x2 x113x162x3 x113x276x2 x113x52x3 x113x126x2 x113x126x3 
x217x116x3 x217x285x2 x217x293x3 x217x256x2 x217x162x3 x217x276x2 x217x52x3 x217x126x2 x217x126x3 
x4x5x2 x4x90x2 x4x206x2 x4x216x2 x4x243x2 x4x44x2 x4x285x2 x4x256x2 x4x276x2 x4x126x2 
x239x5x2 x239x90x2 x239x206x2 x239x216x2 x239x243x2 x239x44x2 x239x285x2 x239x256x2 x239x276x2 x239x126x2 
x251x146x3 x251x44x3 x251x116x3 x251x293x3 x251x162x3 x251x52x3 x251x126x3 
x94x216x1 x94x243x1 x94x16x1 x94x65x1 x94x285x1 x94x162x1 x94x110x1 x94x52x1 x94x139x1 
x5x285x2 x5x256x2 x5x276x2 x5x126x2 x5x0x2 
x90x285x2 x90x256x2 x90x276x2 x90x126x2 x90x0x2 
x138x116x3 x138x285x1 x138x293x3 x138x162x1 x138x162x3 x138x110x1 x138x52x1 x138x52x3 x138x139x1 x138x126x3 x138x0x1 x138x0x3 
x146x116x3 x146x293x3 x146x162x3 x146x52x3 x146x126x3 x146x0x3 
x206x285x2 x206x256x2 x206x276x2 x206x126x2 x206x0x2 
x216x16x1 x216x285x1 x216x285x2 x216x256x2 x216x162x1 x216x110x1 x216x276x2 x216x52x1 x216x139x1 x216x126x2 x216x0x1 x216x0x2 
x221x285x1 x221x162x1 x221x110x1 x221x52x1 x221x139x1 x221x0x1 
x243x285x1 x243x285x2 x243x256x2 x243x162x1 x243x110x1 x243x276x2 x243x52x1 x243x139x1 x243x126x2 x243x0x1 x243x0x2 
x44x116x3 x44x285x2 x44x293x3 x44x256x2 x44x162x3 x44x276x2 x44x52x3 x44x126x2 x44x126x3 x44x0x2 x44x0x3 
x16x285x1 x16x162x1 x16x110x1 x16x52x1 x16x139x1 x16x0x1 
x65x285x1 x65x162x1 x65x110x1 x65x52x1 x65x139x1 x65x0x1 
x116x293x3 x116x162x3 x116x52x3 x116x126x3 x116x0x3 
x285x162x1 x285x110x1 x285x276x2 x285x52x1 x285x139x1 x285x126x2 x285x0x1 x285x0x2 
x293x52x3 x293x126x3 x293x0x3 
x256x276x2 x256x126x2 x256x0x2 
x162x52x1 x162x52x3 x162x126x3 x162x0x1 x162x0x3 
x110x52x1 x110x139x1 x110x0x1 
x276x126x2 x276x0x2 
x52x0x1 x52x0x3 
x139x0x1 
x126x0x2 x126x0x3 

Binaries
y5 y90 y138 y146 y206 y216 y221 y243 y44 y16 y65 y116 y285 y293 y256 y162 y110 y276 y52 y139 y126 
z118z5z2 z118z90z2 z118z146z3 z118z216z2 z118z44z2 z118z44z3 z118z116z3 z118z285z2 z118z293z3 z118z256z2 z118z162z3 z118z276z2 z118z52z3 z118z126z2 z118z126z3 
z100z5z2 z100z90z2 z100z216z1 z100z216z2 z100z44z2 z100z16z1 z100z65z1 z100z285z1 z100z285z2 z100z256z2 z100z162z1 z100z110z1 z100z276z2 z100z52z1 z100z139z1 z100z126z2 
z203z216z1 z203z16z1 z203z65z1 z203z285z1 z203z162z1 z203z110z1 z203z52z1 z203z139z1 
z14z90z2 z14z146z3 z14z216z2 z14z44z2 z14z44z3 z14z116z3 z14z285z2 z14z293z3 z14z256z2 z14z162z3 z14z276z2 z14z52z3 z14z126z2 z14z126z3 
z168z146z3 z168z44z3 z168z116z3 z168z293z3 z168z162z3 z168z52z3 z168z126z3 
z138z146z3 z138z216z1 z138z44z3 z138z16z1 z138z65z1 z138z116z3 z138z285z1 z138z293z3 z138z162z1 z138z162z3 z138z110z1 z138z52z1 z138z52z3 z138z139z1 z138z126z3 
z128z285z1 z128z162z1 z128z110z1 z128z52z1 z128z139z1 
z243z285z1 z243z285z2 z243z256z2 z243z162z1 z243z110z1 z243z276z2 z243z52z1 z243z139z1 z243z126z2 
z113z116z3 z113z285z2 z113z293z3 z113z256z2 z113z162z3 z113z276z2 z113z52z3 z113z126z2 z113z126z3 
z217z116z3 z217z285z2 z217z293z3 z217z256z2 z217z162z3 z217z276z2 z217z52z3 z217z126z2 z217z126z3 
z4z5z2 z4z90z2 z4z206z2 z4z216z2 z4z243z2 z4z44z2 z4z285z2 z4z256z2 z4z276z2 z4z126z2 
z239z5z2 z239z90z2 z239z206z2 z239z216z2 z239z243z2 z239z44z2 z239z285z2 z239z256z2 z239z276z2 z239z126z2 
z251z146z3 z251z44z3 z251z116z3 z251z293z3 z251z162z3 z251z52z3 z251z126z3 
z94z216z1 z94z243z1 z94z16z1 z94z65z1 z94z285z1 z94z162z1 z94z110z1 z94z52z1 z94z139z1 
z5z285z2 z5z256z2 z5z276z2 z5z126z2 
z90z285z2 z90z256z2 z90z276z2 z90z126z2 
z138z116z3 z138z285z1 z138z293z3 z138z162z1 z138z162z3 z138z110z1 z138z52z1 z138z52z3 z138z139z1 z138z126z3 
z146z116z3 z146z293z3 z146z162z3 z146z52z3 z146z126z3 
z206z285z2 z206z256z2 z206z276z2 z206z126z2 
z216z16z1 z216z285z1 z216z285z2 z216z256z2 z216z162z1 z216z110z1 z216z276z2 z216z52z1 z216z139z1 z216z126z2 
z221z285z1 z221z162z1 z221z110z1 z221z52z1 z221z139z1 
z243z285z1 z243z285z2 z243z256z2 z243z162z1 z243z110z1 z243z276z2 z243z52z1 z243z139z1 z243z126z2 
z44z116z3 z44z285z2 z44z293z3 z44z256z2 z44z162z3 z44z276z2 z44z52z3 z44z126z2 z44z126z3 
z16z285z1 z16z162z1 z16z110z1 z16z52z1 z16z139z1 
z65z285z1 z65z162z1 z65z110z1 z65z52z1 z65z139z1 
z116z293z3 z116z162z3 z116z52z3 z116z126z3 
z285z162z1 z285z110z1 z285z276z2 z285z52z1 z285z139z1 z285z126z2 
z293z52z3 z293z126z3 
z256z276z2 z256z126z2 
z162z52z1 z162z52z3 z162z126z3 
z110z52z1 z110z139z1 
z276z126z2 




End